Minimize
	value: tt

Subject to
tt + 1000 s_1_1 > 0.0
tt - t_1_1 - 1000.701282 s_1_1  + 0.350641 s_1_8  + 0.350641 s_1_7  > -974.702400
tt + 1000 s_2_1 > 0.0
tt - t_2_1 - 1001.074116 s_2_1  + 0.537058 s_2_8  + 0.537058 s_2_7  > -962.832078
tt + 1000 s_1_2 > 0.0
tt - t_1_2 - 1000.350641 s_1_2  + 0.350641 s_1_7  > -974.871700
tt + 1000 s_2_2 > 0.0
tt - t_2_2 - 1000.537058 s_2_2  + 0.537058 s_2_7  > -963.364625
tt + 1000 s_1_3 > 0.0
tt - t_1_3 - 1000.701282 s_1_3  + 0.350641 s_1_8  + 0.350641 s_1_7  > -999.240678
tt + 1000 s_2_3 > 0.0
tt - t_2_3 - 1001.074116 s_2_3  + 0.537058 s_2_8  + 0.537058 s_2_7  > -995.269156
tt + 1000 s_1_4 > 0.0
tt - t_1_4 - 1000.350641 s_1_4  + 0.350641 s_1_7  > -998.754978
tt + 1000 s_2_4 > 0.0
tt - t_2_4 - 1000.537058 s_2_4  + 0.537058 s_2_7  > -992.848139
tt + 1000 s_1_5 > 0.0
tt - t_1_5 - 1000.350641 s_1_5  + 0.350641 s_1_8  > -987.816222
tt + 1000 s_2_5 > 0.0
tt - t_2_5 - 1000.537058 s_2_5  + 0.537058 s_2_8  > -981.228406
tt + 1000 s_1_6 > 0.0
tt - t_1_6 - 1002.103847 s_1_6  + 0.350641 s_1_5  + 0.350641 s_1_4  + 0.350641 s_1_1  + 0.350641 s_1_7  + 0.350641 s_1_2  + 0.350641 s_1_3  > -999.143300
tt + 1000 s_2_6 > 0.0
tt - t_2_6 - 1003.222348 s_2_6  + 0.537058 s_2_5  + 0.537058 s_2_4  + 0.537058 s_2_1  + 0.537058 s_2_7  + 0.537058 s_2_2  + 0.537058 s_2_3  > -997.580500
tt + 1000 s_1_7 > 0.0
tt - t_1_7 - 1000.000000 s_1_7  > -973.627300
tt + 1000 s_2_7 > 0.0
tt - t_2_7 - 1000.000000 s_2_7  > -968.093467
tt + 1000 s_1_8 > 0.0
tt - t_1_8 - 1000.000000 s_1_8  > -952.769600
tt + 1000 s_2_8 > 0.0
tt - t_2_8 - 1000.000000 s_2_8  > -958.176900
s_1_1 + s_2_1 = 1
s_1_2 + s_2_2 = 1
s_1_3 + s_2_3 = 1
s_1_4 + s_2_4 = 1
s_1_5 + s_2_5 = 1
s_1_6 + s_2_6 = 1
s_1_7 + s_2_7 = 1
s_1_8 + s_2_8 = 1
s_1_1 + s_1_2 + 1000 r_1_1_2 >= 2
- s_1_1 - s_1_2 - 1000 r_1_1_2 >= -1001
t_1_1 - t_1_2 - 1000.000000 u_1_1_2 - 0.350641 s_1_2  + 0.350641 s_1_7  + 2000.000000 r_1_1_2 > -974.871700
s_2_1 + s_2_2 + 1000 r_2_1_2 >= 2
- s_2_1 - s_2_2 - 1000 r_2_1_2 >= -1001
t_2_1 - t_2_2 - 1000.000000 u_2_1_2 - 0.537058 s_2_2  + 0.537058 s_2_7  + 2000.000000 r_2_1_2 > -963.364625
s_1_1 + s_1_3 + 1000 r_1_1_3 >= 2
- s_1_1 - s_1_3 - 1000 r_1_1_3 >= -1001
t_1_1 - t_1_3 - 1000.000000 u_1_1_3 - 0.701282 s_1_3  + 0.350641 s_1_8  + 0.350641 s_1_7  + 2000.000000 r_1_1_3 > -999.240678
s_2_1 + s_2_3 + 1000 r_2_1_3 >= 2
- s_2_1 - s_2_3 - 1000 r_2_1_3 >= -1001
t_2_1 - t_2_3 - 1000.000000 u_2_1_3 - 1.074116 s_2_3  + 0.537058 s_2_8  + 0.537058 s_2_7  + 2000.000000 r_2_1_3 > -995.269156
s_1_1 + s_1_4 + 1000 r_1_1_4 >= 2
- s_1_1 - s_1_4 - 1000 r_1_1_4 >= -1001
t_1_1 - t_1_4 - 1000.000000 u_1_1_4 - 0.350641 s_1_4  + 0.350641 s_1_7  + 2000.000000 r_1_1_4 > -998.754978
s_2_1 + s_2_4 + 1000 r_2_1_4 >= 2
- s_2_1 - s_2_4 - 1000 r_2_1_4 >= -1001
t_2_1 - t_2_4 - 1000.000000 u_2_1_4 - 0.537058 s_2_4  + 0.537058 s_2_7  + 2000.000000 r_2_1_4 > -992.848139
s_1_1 + s_1_5 + 1000 r_1_1_5 >= 2
- s_1_1 - s_1_5 - 1000 r_1_1_5 >= -1001
t_1_1 - t_1_5 - 1000.000000 u_1_1_5 - 0.350641 s_1_5  + 0.350641 s_1_8  + 2000.000000 r_1_1_5 > -987.816222
s_2_1 + s_2_5 + 1000 r_2_1_5 >= 2
- s_2_1 - s_2_5 - 1000 r_2_1_5 >= -1001
t_2_1 - t_2_5 - 1000.000000 u_2_1_5 - 0.537058 s_2_5  + 0.537058 s_2_8  + 2000.000000 r_2_1_5 > -981.228406
t_1_6 - t_1_1 - 1000.701282 s_1_1  + 0.350641 s_1_8  + 0.350641 s_1_7  > -974.702400
t_1_6 - t_2_1 - 1001.074116 s_2_1  + 0.537058 s_2_8  + 0.537058 s_2_7  > -962.832078
t_2_6 - t_1_1 - 1000.701282 s_1_1  + 0.350641 s_1_8  + 0.350641 s_1_7  > -974.702400
t_2_6 - t_2_1 - 1001.074116 s_2_1  + 0.537058 s_2_8  + 0.537058 s_2_7  > -962.832078
t_1_1 - t_1_7 - 1000.000000 s_1_7  > -973.627300
t_1_1 - t_2_7 - 1000.000000 s_2_7  > -968.093467
t_2_1 - t_1_7 - 1000.000000 s_1_7  > -973.627300
t_2_1 - t_2_7 - 1000.000000 s_2_7  > -968.093467
t_1_1 - t_1_8 - 1000.000000 s_1_8  > -952.769600
t_1_1 - t_2_8 - 1000.000000 s_2_8  > -958.176900
t_2_1 - t_1_8 - 1000.000000 s_1_8  > -952.769600
t_2_1 - t_2_8 - 1000.000000 s_2_8  > -958.176900
s_1_2 + s_1_1 + 1000 r_1_1_2 >= 2
- s_1_2 - s_1_1 - 1000 r_1_1_2 >= -1001
t_1_2 - t_1_1 + 1000.000000 u_1_1_2 - 0.701282 s_1_1  + 0.350641 s_1_8  + 0.350641 s_1_7  + 2000.000000 r_1_1_2 > 25.297600
s_2_2 + s_2_1 + 1000 r_2_1_2 >= 2
- s_2_2 - s_2_1 - 1000 r_2_1_2 >= -1001
t_2_2 - t_2_1 + 1000.000000 u_2_1_2 - 1.074116 s_2_1  + 0.537058 s_2_8  + 0.537058 s_2_7  + 2000.000000 r_2_1_2 > 37.167922
s_1_2 + s_1_3 + 1000 r_1_2_3 >= 2
- s_1_2 - s_1_3 - 1000 r_1_2_3 >= -1001
t_1_2 - t_1_3 - 1000.000000 u_1_2_3 - 0.701282 s_1_3  + 0.350641 s_1_8  + 0.350641 s_1_7  + 2000.000000 r_1_2_3 > -999.240678
s_2_2 + s_2_3 + 1000 r_2_2_3 >= 2
- s_2_2 - s_2_3 - 1000 r_2_2_3 >= -1001
t_2_2 - t_2_3 - 1000.000000 u_2_2_3 - 1.074116 s_2_3  + 0.537058 s_2_8  + 0.537058 s_2_7  + 2000.000000 r_2_2_3 > -995.269156
s_1_2 + s_1_4 + 1000 r_1_2_4 >= 2
- s_1_2 - s_1_4 - 1000 r_1_2_4 >= -1001
t_1_2 - t_1_4 - 1000.000000 u_1_2_4 - 0.350641 s_1_4  + 0.350641 s_1_7  + 2000.000000 r_1_2_4 > -998.754978
s_2_2 + s_2_4 + 1000 r_2_2_4 >= 2
- s_2_2 - s_2_4 - 1000 r_2_2_4 >= -1001
t_2_2 - t_2_4 - 1000.000000 u_2_2_4 - 0.537058 s_2_4  + 0.537058 s_2_7  + 2000.000000 r_2_2_4 > -992.848139
s_1_2 + s_1_5 + 1000 r_1_2_5 >= 2
- s_1_2 - s_1_5 - 1000 r_1_2_5 >= -1001
t_1_2 - t_1_5 - 1000.000000 u_1_2_5 - 0.350641 s_1_5  + 0.350641 s_1_8  + 2000.000000 r_1_2_5 > -987.816222
s_2_2 + s_2_5 + 1000 r_2_2_5 >= 2
- s_2_2 - s_2_5 - 1000 r_2_2_5 >= -1001
t_2_2 - t_2_5 - 1000.000000 u_2_2_5 - 0.537058 s_2_5  + 0.537058 s_2_8  + 2000.000000 r_2_2_5 > -981.228406
t_1_6 - t_1_2 - 1000.350641 s_1_2  + 0.350641 s_1_7  > -974.871700
t_1_6 - t_2_2 - 1000.537058 s_2_2  + 0.537058 s_2_7  > -963.364625
t_2_6 - t_1_2 - 1000.350641 s_1_2  + 0.350641 s_1_7  > -974.871700
t_2_6 - t_2_2 - 1000.537058 s_2_2  + 0.537058 s_2_7  > -963.364625
t_1_2 - t_1_7 - 1000.000000 s_1_7  > -973.627300
t_1_2 - t_2_7 - 1000.000000 s_2_7  > -968.093467
t_2_2 - t_1_7 - 1000.000000 s_1_7  > -973.627300
t_2_2 - t_2_7 - 1000.000000 s_2_7  > -968.093467
s_1_2 + s_1_8 + 1000 r_1_2_8 >= 2
- s_1_2 - s_1_8 - 1000 r_1_2_8 >= -1001
t_1_2 - t_1_8 - 1000.000000 u_1_2_8 - 0.000000 s_1_8  + 2000.000000 r_1_2_8 > -952.769600
s_2_2 + s_2_8 + 1000 r_2_2_8 >= 2
- s_2_2 - s_2_8 - 1000 r_2_2_8 >= -1001
t_2_2 - t_2_8 - 1000.000000 u_2_2_8 - 0.000000 s_2_8  + 2000.000000 r_2_2_8 > -958.176900
s_1_3 + s_1_1 + 1000 r_1_1_3 >= 2
- s_1_3 - s_1_1 - 1000 r_1_1_3 >= -1001
t_1_3 - t_1_1 + 1000.000000 u_1_1_3 - 0.701282 s_1_1  + 0.350641 s_1_8  + 0.350641 s_1_7  + 2000.000000 r_1_1_3 > 25.297600
s_2_3 + s_2_1 + 1000 r_2_1_3 >= 2
- s_2_3 - s_2_1 - 1000 r_2_1_3 >= -1001
t_2_3 - t_2_1 + 1000.000000 u_2_1_3 - 1.074116 s_2_1  + 0.537058 s_2_8  + 0.537058 s_2_7  + 2000.000000 r_2_1_3 > 37.167922
s_1_3 + s_1_2 + 1000 r_1_2_3 >= 2
- s_1_3 - s_1_2 - 1000 r_1_2_3 >= -1001
t_1_3 - t_1_2 + 1000.000000 u_1_2_3 - 0.350641 s_1_2  + 0.350641 s_1_7  + 2000.000000 r_1_2_3 > 25.128300
s_2_3 + s_2_2 + 1000 r_2_2_3 >= 2
- s_2_3 - s_2_2 - 1000 r_2_2_3 >= -1001
t_2_3 - t_2_2 + 1000.000000 u_2_2_3 - 0.537058 s_2_2  + 0.537058 s_2_7  + 2000.000000 r_2_2_3 > 36.635375
s_1_3 + s_1_4 + 1000 r_1_3_4 >= 2
- s_1_3 - s_1_4 - 1000 r_1_3_4 >= -1001
t_1_3 - t_1_4 - 1000.000000 u_1_3_4 - 0.350641 s_1_4  + 0.350641 s_1_7  + 2000.000000 r_1_3_4 > -998.754978
s_2_3 + s_2_4 + 1000 r_2_3_4 >= 2
- s_2_3 - s_2_4 - 1000 r_2_3_4 >= -1001
t_2_3 - t_2_4 - 1000.000000 u_2_3_4 - 0.537058 s_2_4  + 0.537058 s_2_7  + 2000.000000 r_2_3_4 > -992.848139
s_1_3 + s_1_5 + 1000 r_1_3_5 >= 2
- s_1_3 - s_1_5 - 1000 r_1_3_5 >= -1001
t_1_3 - t_1_5 - 1000.000000 u_1_3_5 - 0.350641 s_1_5  + 0.350641 s_1_8  + 2000.000000 r_1_3_5 > -987.816222
s_2_3 + s_2_5 + 1000 r_2_3_5 >= 2
- s_2_3 - s_2_5 - 1000 r_2_3_5 >= -1001
t_2_3 - t_2_5 - 1000.000000 u_2_3_5 - 0.537058 s_2_5  + 0.537058 s_2_8  + 2000.000000 r_2_3_5 > -981.228406
t_1_6 - t_1_3 - 1000.701282 s_1_3  + 0.350641 s_1_8  + 0.350641 s_1_7  > -999.240678
t_1_6 - t_2_3 - 1001.074116 s_2_3  + 0.537058 s_2_8  + 0.537058 s_2_7  > -995.269156
t_2_6 - t_1_3 - 1000.701282 s_1_3  + 0.350641 s_1_8  + 0.350641 s_1_7  > -999.240678
t_2_6 - t_2_3 - 1001.074116 s_2_3  + 0.537058 s_2_8  + 0.537058 s_2_7  > -995.269156
t_1_3 - t_1_7 - 1000.000000 s_1_7  > -973.627300
t_1_3 - t_2_7 - 1000.000000 s_2_7  > -968.093467
t_2_3 - t_1_7 - 1000.000000 s_1_7  > -973.627300
t_2_3 - t_2_7 - 1000.000000 s_2_7  > -968.093467
t_1_3 - t_1_8 - 1000.000000 s_1_8  > -952.769600
t_1_3 - t_2_8 - 1000.000000 s_2_8  > -958.176900
t_2_3 - t_1_8 - 1000.000000 s_1_8  > -952.769600
t_2_3 - t_2_8 - 1000.000000 s_2_8  > -958.176900
s_1_4 + s_1_1 + 1000 r_1_1_4 >= 2
- s_1_4 - s_1_1 - 1000 r_1_1_4 >= -1001
t_1_4 - t_1_1 + 1000.000000 u_1_1_4 - 0.701282 s_1_1  + 0.350641 s_1_8  + 0.350641 s_1_7  + 2000.000000 r_1_1_4 > 25.297600
s_2_4 + s_2_1 + 1000 r_2_1_4 >= 2
- s_2_4 - s_2_1 - 1000 r_2_1_4 >= -1001
t_2_4 - t_2_1 + 1000.000000 u_2_1_4 - 1.074116 s_2_1  + 0.537058 s_2_8  + 0.537058 s_2_7  + 2000.000000 r_2_1_4 > 37.167922
s_1_4 + s_1_2 + 1000 r_1_2_4 >= 2
- s_1_4 - s_1_2 - 1000 r_1_2_4 >= -1001
t_1_4 - t_1_2 + 1000.000000 u_1_2_4 - 0.350641 s_1_2  + 0.350641 s_1_7  + 2000.000000 r_1_2_4 > 25.128300
s_2_4 + s_2_2 + 1000 r_2_2_4 >= 2
- s_2_4 - s_2_2 - 1000 r_2_2_4 >= -1001
t_2_4 - t_2_2 + 1000.000000 u_2_2_4 - 0.537058 s_2_2  + 0.537058 s_2_7  + 2000.000000 r_2_2_4 > 36.635375
s_1_4 + s_1_3 + 1000 r_1_3_4 >= 2
- s_1_4 - s_1_3 - 1000 r_1_3_4 >= -1001
t_1_4 - t_1_3 + 1000.000000 u_1_3_4 - 0.701282 s_1_3  + 0.350641 s_1_8  + 0.350641 s_1_7  + 2000.000000 r_1_3_4 > 0.759322
s_2_4 + s_2_3 + 1000 r_2_3_4 >= 2
- s_2_4 - s_2_3 - 1000 r_2_3_4 >= -1001
t_2_4 - t_2_3 + 1000.000000 u_2_3_4 - 1.074116 s_2_3  + 0.537058 s_2_8  + 0.537058 s_2_7  + 2000.000000 r_2_3_4 > 4.730844
s_1_4 + s_1_5 + 1000 r_1_4_5 >= 2
- s_1_4 - s_1_5 - 1000 r_1_4_5 >= -1001
t_1_4 - t_1_5 - 1000.000000 u_1_4_5 - 0.350641 s_1_5  + 0.350641 s_1_8  + 2000.000000 r_1_4_5 > -987.816222
s_2_4 + s_2_5 + 1000 r_2_4_5 >= 2
- s_2_4 - s_2_5 - 1000 r_2_4_5 >= -1001
t_2_4 - t_2_5 - 1000.000000 u_2_4_5 - 0.537058 s_2_5  + 0.537058 s_2_8  + 2000.000000 r_2_4_5 > -981.228406
t_1_6 - t_1_4 - 1000.350641 s_1_4  + 0.350641 s_1_7  > -998.754978
t_1_6 - t_2_4 - 1000.537058 s_2_4  + 0.537058 s_2_7  > -992.848139
t_2_6 - t_1_4 - 1000.350641 s_1_4  + 0.350641 s_1_7  > -998.754978
t_2_6 - t_2_4 - 1000.537058 s_2_4  + 0.537058 s_2_7  > -992.848139
t_1_4 - t_1_7 - 1000.000000 s_1_7  > -973.627300
t_1_4 - t_2_7 - 1000.000000 s_2_7  > -968.093467
t_2_4 - t_1_7 - 1000.000000 s_1_7  > -973.627300
t_2_4 - t_2_7 - 1000.000000 s_2_7  > -968.093467
s_1_4 + s_1_8 + 1000 r_1_4_8 >= 2
- s_1_4 - s_1_8 - 1000 r_1_4_8 >= -1001
t_1_4 - t_1_8 - 1000.000000 u_1_4_8 - 0.000000 s_1_8  + 2000.000000 r_1_4_8 > -952.769600
s_2_4 + s_2_8 + 1000 r_2_4_8 >= 2
- s_2_4 - s_2_8 - 1000 r_2_4_8 >= -1001
t_2_4 - t_2_8 - 1000.000000 u_2_4_8 - 0.000000 s_2_8  + 2000.000000 r_2_4_8 > -958.176900
s_1_5 + s_1_1 + 1000 r_1_1_5 >= 2
- s_1_5 - s_1_1 - 1000 r_1_1_5 >= -1001
t_1_5 - t_1_1 + 1000.000000 u_1_1_5 - 0.701282 s_1_1  + 0.350641 s_1_8  + 0.350641 s_1_7  + 2000.000000 r_1_1_5 > 25.297600
s_2_5 + s_2_1 + 1000 r_2_1_5 >= 2
- s_2_5 - s_2_1 - 1000 r_2_1_5 >= -1001
t_2_5 - t_2_1 + 1000.000000 u_2_1_5 - 1.074116 s_2_1  + 0.537058 s_2_8  + 0.537058 s_2_7  + 2000.000000 r_2_1_5 > 37.167922
s_1_5 + s_1_2 + 1000 r_1_2_5 >= 2
- s_1_5 - s_1_2 - 1000 r_1_2_5 >= -1001
t_1_5 - t_1_2 + 1000.000000 u_1_2_5 - 0.350641 s_1_2  + 0.350641 s_1_7  + 2000.000000 r_1_2_5 > 25.128300
s_2_5 + s_2_2 + 1000 r_2_2_5 >= 2
- s_2_5 - s_2_2 - 1000 r_2_2_5 >= -1001
t_2_5 - t_2_2 + 1000.000000 u_2_2_5 - 0.537058 s_2_2  + 0.537058 s_2_7  + 2000.000000 r_2_2_5 > 36.635375
s_1_5 + s_1_3 + 1000 r_1_3_5 >= 2
- s_1_5 - s_1_3 - 1000 r_1_3_5 >= -1001
t_1_5 - t_1_3 + 1000.000000 u_1_3_5 - 0.701282 s_1_3  + 0.350641 s_1_8  + 0.350641 s_1_7  + 2000.000000 r_1_3_5 > 0.759322
s_2_5 + s_2_3 + 1000 r_2_3_5 >= 2
- s_2_5 - s_2_3 - 1000 r_2_3_5 >= -1001
t_2_5 - t_2_3 + 1000.000000 u_2_3_5 - 1.074116 s_2_3  + 0.537058 s_2_8  + 0.537058 s_2_7  + 2000.000000 r_2_3_5 > 4.730844
s_1_5 + s_1_4 + 1000 r_1_4_5 >= 2
- s_1_5 - s_1_4 - 1000 r_1_4_5 >= -1001
t_1_5 - t_1_4 + 1000.000000 u_1_4_5 - 0.350641 s_1_4  + 0.350641 s_1_7  + 2000.000000 r_1_4_5 > 1.245022
s_2_5 + s_2_4 + 1000 r_2_4_5 >= 2
- s_2_5 - s_2_4 - 1000 r_2_4_5 >= -1001
t_2_5 - t_2_4 + 1000.000000 u_2_4_5 - 0.537058 s_2_4  + 0.537058 s_2_7  + 2000.000000 r_2_4_5 > 7.151861
t_1_6 - t_1_5 - 1000.350641 s_1_5  + 0.350641 s_1_8  > -987.816222
t_1_6 - t_2_5 - 1000.537058 s_2_5  + 0.537058 s_2_8  > -981.228406
t_2_6 - t_1_5 - 1000.350641 s_1_5  + 0.350641 s_1_8  > -987.816222
t_2_6 - t_2_5 - 1000.537058 s_2_5  + 0.537058 s_2_8  > -981.228406
s_1_5 + s_1_7 + 1000 r_1_5_7 >= 2
- s_1_5 - s_1_7 - 1000 r_1_5_7 >= -1001
t_1_5 - t_1_7 - 1000.000000 u_1_5_7 - 0.000000 s_1_7  + 2000.000000 r_1_5_7 > -973.627300
s_2_5 + s_2_7 + 1000 r_2_5_7 >= 2
- s_2_5 - s_2_7 - 1000 r_2_5_7 >= -1001
t_2_5 - t_2_7 - 1000.000000 u_2_5_7 - 0.000000 s_2_7  + 2000.000000 r_2_5_7 > -968.093467
t_1_5 - t_1_8 - 1000.000000 s_1_8  > -952.769600
t_1_5 - t_2_8 - 1000.000000 s_2_8  > -958.176900
t_2_5 - t_1_8 - 1000.000000 s_1_8  > -952.769600
t_2_5 - t_2_8 - 1000.000000 s_2_8  > -958.176900
t_1_6 - t_1_7 - 1000.000000 s_1_7  > -973.627300
t_1_6 - t_2_7 - 1000.000000 s_2_7  > -968.093467
t_2_6 - t_1_7 - 1000.000000 s_1_7  > -973.627300
t_2_6 - t_2_7 - 1000.000000 s_2_7  > -968.093467
s_1_7 + s_1_5 + 1000 r_1_5_7 >= 2
- s_1_7 - s_1_5 - 1000 r_1_5_7 >= -1001
t_1_7 - t_1_5 + 1000.000000 u_1_5_7 - 0.350641 s_1_5  + 0.350641 s_1_8  + 2000.000000 r_1_5_7 > 12.183778
s_2_7 + s_2_5 + 1000 r_2_5_7 >= 2
- s_2_7 - s_2_5 - 1000 r_2_5_7 >= -1001
t_2_7 - t_2_5 + 1000.000000 u_2_5_7 - 0.537058 s_2_5  + 0.537058 s_2_8  + 2000.000000 r_2_5_7 > 18.771594
s_1_7 + s_1_8 + 1000 r_1_7_8 >= 2
- s_1_7 - s_1_8 - 1000 r_1_7_8 >= -1001
t_1_7 - t_1_8 - 1000.000000 u_1_7_8 - 0.000000 s_1_8  + 2000.000000 r_1_7_8 > -952.769600
s_2_7 + s_2_8 + 1000 r_2_7_8 >= 2
- s_2_7 - s_2_8 - 1000 r_2_7_8 >= -1001
t_2_7 - t_2_8 - 1000.000000 u_2_7_8 - 0.000000 s_2_8  + 2000.000000 r_2_7_8 > -958.176900
s_1_8 + s_1_2 + 1000 r_1_2_8 >= 2
- s_1_8 - s_1_2 - 1000 r_1_2_8 >= -1001
t_1_8 - t_1_2 + 1000.000000 u_1_2_8 - 0.350641 s_1_2  + 0.350641 s_1_7  + 2000.000000 r_1_2_8 > 25.128300
s_2_8 + s_2_2 + 1000 r_2_2_8 >= 2
- s_2_8 - s_2_2 - 1000 r_2_2_8 >= -1001
t_2_8 - t_2_2 + 1000.000000 u_2_2_8 - 0.537058 s_2_2  + 0.537058 s_2_7  + 2000.000000 r_2_2_8 > 36.635375
s_1_8 + s_1_4 + 1000 r_1_4_8 >= 2
- s_1_8 - s_1_4 - 1000 r_1_4_8 >= -1001
t_1_8 - t_1_4 + 1000.000000 u_1_4_8 - 0.350641 s_1_4  + 0.350641 s_1_7  + 2000.000000 r_1_4_8 > 1.245022
s_2_8 + s_2_4 + 1000 r_2_4_8 >= 2
- s_2_8 - s_2_4 - 1000 r_2_4_8 >= -1001
t_2_8 - t_2_4 + 1000.000000 u_2_4_8 - 0.537058 s_2_4  + 0.537058 s_2_7  + 2000.000000 r_2_4_8 > 7.151861
s_1_8 + s_1_7 + 1000 r_1_7_8 >= 2
- s_1_8 - s_1_7 - 1000 r_1_7_8 >= -1001
t_1_8 - t_1_7 + 1000.000000 u_1_7_8 - 0.000000 s_1_7  + 2000.000000 r_1_7_8 > 26.372700
s_2_8 + s_2_7 + 1000 r_2_7_8 >= 2
- s_2_8 - s_2_7 - 1000 r_2_7_8 >= -1001
t_2_8 - t_2_7 + 1000.000000 u_2_7_8 - 0.000000 s_2_7  + 2000.000000 r_2_7_8 > 31.906533
Binary
s_1_1
s_2_1
s_1_2
s_2_2
s_1_3
s_2_3
s_1_4
s_2_4
s_1_5
s_2_5
s_1_6
s_2_6
s_1_7
s_2_7
s_1_8
s_2_8
u_1_1_2
r_1_1_2
u_2_1_2
r_2_1_2
u_1_1_3
r_1_1_3
u_2_1_3
r_2_1_3
u_1_1_4
r_1_1_4
u_2_1_4
r_2_1_4
u_1_1_5
r_1_1_5
u_2_1_5
r_2_1_5
u_1_2_3
r_1_2_3
u_2_2_3
r_2_2_3
u_1_2_4
r_1_2_4
u_2_2_4
r_2_2_4
u_1_2_5
r_1_2_5
u_2_2_5
r_2_2_5
u_1_2_8
r_1_2_8
u_2_2_8
r_2_2_8
u_1_3_4
r_1_3_4
u_2_3_4
r_2_3_4
u_1_3_5
r_1_3_5
u_2_3_5
r_2_3_5
u_1_4_5
r_1_4_5
u_2_4_5
r_2_4_5
u_1_4_8
r_1_4_8
u_2_4_8
r_2_4_8
u_1_5_7
r_1_5_7
u_2_5_7
r_2_5_7
u_1_7_8
r_1_7_8
u_2_7_8
r_2_7_8

End
